Ni2 P Ge S6                             
   1.0000000000000000     
     5.8753842955683551    0.0000000797228756   -0.0000000000000000
     2.9376918046507501    5.0882318963614646   -0.0000000000000000
    -0.0000000000000001   -0.0000000000000001   22.2429758849297947
   Ni   P    Ge   S 
     2     1     1     6
Selective dynamics
Direct
  0.3333330000000032  0.3333330000000032  0.4981894719958463   T   T   T
  0.6666669999999968  0.6666669999999968  0.4980717526913263   T   T   T
 -0.0000000000000000 -0.0000000000000000  0.4486727596381231   T   T   T
  0.0000000000000000  0.0000000000000000  0.5517839999999978   F   F   F
  0.6165934983413950 -0.0000838773190039  0.5644816465905040   T   T   T
 -0.0000838773084130  0.3834913789934388  0.5644816465905040   T   T   T
  0.3834913789670154  0.6165934983255623  0.5644816465905040   T   T   T
  0.3450762205479266  0.0000791371796572  0.4281645142359212   T   T   T
  0.0000791371596495  0.6548436422430156  0.4281645142359212   T   T   T
  0.6548436422924262  0.3450762205773300  0.4281645142359212   T   T   T

  0.00000000E+00  0.00000000E+00  0.00000000E+00
  0.00000000E+00  0.00000000E+00  0.00000000E+00
  0.00000000E+00  0.00000000E+00  0.00000000E+00
  0.00000000E+00  0.00000000E+00  0.00000000E+00
  0.00000000E+00  0.00000000E+00  0.00000000E+00
  0.00000000E+00  0.00000000E+00  0.00000000E+00
  0.00000000E+00  0.00000000E+00  0.00000000E+00
  0.00000000E+00  0.00000000E+00  0.00000000E+00
  0.00000000E+00  0.00000000E+00  0.00000000E+00
  0.00000000E+00  0.00000000E+00  0.00000000E+00
