Cr2 Ge2 Se6                             
   1.0000000000000000     
     6.3715566992484041   -0.0000000505893131   -0.0000000000000000
     3.1857780090222971    5.5179296567643608   -0.0000000000000000
    -0.0000000000000000   -0.0000000000000000   22.9499666437769996
   Cr   Ge   Se
     2     2     6
Selective dynamics
Direct
  0.3333330000000032  0.3333330000000032  0.4999249999999975   F   F   F
  0.6666669999999968  0.6666669999999968  0.5000750000000025   F   F   F
  0.0000000000000000  0.0000000000000000  0.4482160000000022   F   F   F
  0.0000000000000000  0.0000000000000000  0.5517839999999978   F   F   F
  0.6250992544719602  0.0001026783902969  0.5715089423814775   T   T   T
  0.0001026783830474  0.3747990671268790  0.5715089423814775   T   T   T
  0.3747990671449898  0.6250992544828217  0.5715089423814775   T   T   T
  0.3749007455280398  0.9998973216097031  0.4284910576185224   T   T   T
  0.9998973216169526  0.6252009328731211  0.4284910576185224   T   T   T
  0.6252009328550102  0.3749007455171784  0.4284910576185224   T   T   T

  0.00000000E+00  0.00000000E+00  0.00000000E+00
  0.00000000E+00  0.00000000E+00  0.00000000E+00
  0.00000000E+00  0.00000000E+00  0.00000000E+00
  0.00000000E+00  0.00000000E+00  0.00000000E+00
  0.00000000E+00  0.00000000E+00  0.00000000E+00
  0.00000000E+00  0.00000000E+00  0.00000000E+00
  0.00000000E+00  0.00000000E+00  0.00000000E+00
  0.00000000E+00  0.00000000E+00  0.00000000E+00
  0.00000000E+00  0.00000000E+00  0.00000000E+00
  0.00000000E+00  0.00000000E+00  0.00000000E+00
