Ni2 P2 S6                               
   1.0000000000000000     
     5.8189156063524177    0.0000001322578168    0.0000000000000000
     2.9094574045401793    5.0393285959315701   -0.0000000000000000
    -0.0000000000000000    0.0000000000000000   21.3041781391853746
   Ni   P    S 
     2     2     6
Selective dynamics
Direct
  0.3333330000000032  0.3333330000000032  0.4999500024450962   T   T   T
  0.6666669999999968  0.6666669999999968  0.5000499975549039   T   T   T
 -0.0000000000000000 -0.0000000000000000  0.4483452072423400   T   T   T
 -0.0000000000000000 -0.0000000000000000  0.5516547927576601   T   T   T
  0.6536995414175116  0.0001033231167244  0.5700966938309340   T   T   T
  0.0001033219626607  0.3461981337681866  0.5700966938309340   T   T   T
  0.3461981366198252  0.6536995431150864  0.5700966938309340   T   T   T
  0.3463004585824884  0.9998966768832759  0.4299033061690659   T   T   T
  0.9998966780373393  0.6538018662318134  0.4299033061690659   T   T   T
  0.6538018633801748  0.3463004568849137  0.4299033061690659   T   T   T

  0.00000000E+00  0.00000000E+00  0.00000000E+00
  0.00000000E+00  0.00000000E+00  0.00000000E+00
  0.00000000E+00  0.00000000E+00  0.00000000E+00
  0.00000000E+00  0.00000000E+00  0.00000000E+00
  0.00000000E+00  0.00000000E+00  0.00000000E+00
  0.00000000E+00  0.00000000E+00  0.00000000E+00
  0.00000000E+00  0.00000000E+00  0.00000000E+00
  0.00000000E+00  0.00000000E+00  0.00000000E+00
  0.00000000E+00  0.00000000E+00  0.00000000E+00
  0.00000000E+00  0.00000000E+00  0.00000000E+00
