Cr2 Si P Se6                            
   1.0000000000000000     
     6.2804526709045883    0.0000000069183378    0.0000000000000000
     3.1402259663008403    5.4390312981292350   -0.0000000000000000
    -0.0000000000000000   -0.0000000000000000   22.1926064654217612
   Cr   Si   P    Se
     2     1     1     6
Selective dynamics
Direct
  0.3333330000000032  0.3333330000000032  0.4999249999999975   F   F   F
  0.6666669999999968  0.6666669999999968  0.5000750000000025   F   F   F
  0.0000000000000000  0.0000000000000000  0.4524509999140002   T   T   T
  0.0000000000000000  0.0000000000000000  0.5526966490361985   T   T   T
  0.6295133413632161  0.0001296821387202  0.5706505042306790   T   T   T
  0.0001296821367899  0.3703579764951813  0.5706505042306790   T   T   T
  0.3703579764999916  0.6295133413660959  0.5706505042306790   T   T   T
  0.3553190445708126  0.9998343039292640  0.4270359434468800   T   T   T
  0.9998343039340052  0.6448456515069638  0.4270359434468800   T   T   T
  0.6448456514951846  0.3553190445637747  0.4270359434468800   T   T   T

  0.00000000E+00  0.00000000E+00  0.00000000E+00
  0.00000000E+00  0.00000000E+00  0.00000000E+00
  0.00000000E+00  0.00000000E+00  0.00000000E+00
  0.00000000E+00  0.00000000E+00  0.00000000E+00
  0.00000000E+00  0.00000000E+00  0.00000000E+00
  0.00000000E+00  0.00000000E+00  0.00000000E+00
  0.00000000E+00  0.00000000E+00  0.00000000E+00
  0.00000000E+00  0.00000000E+00  0.00000000E+00
  0.00000000E+00  0.00000000E+00  0.00000000E+00
  0.00000000E+00  0.00000000E+00  0.00000000E+00
