Cr2 P2 S6                               
   1.0000000000000000     
     5.9499447961058296    0.0000001017556022    0.0000000000000000
     2.9749720178624806    5.1528031818152353    0.0000000000000000
     0.0000000000000000    0.0000000000000000   21.3751900471610554
   Cr   P    S 
     2     2     6
Selective dynamics
Direct
  0.3333330000000032  0.3333330000000032  0.4999249999999975   F   F   F
  0.6666669999999968  0.6666669999999968  0.5000750000000025   F   F   F
 -0.0000000000000000  0.0000000000000000  0.4478529999386822   T   T   T
 -0.0000000000000000  0.0000000000000000  0.5521470000613178   T   T   T
  0.6528697595048486  0.0001140088850461  0.5705770370876693   T   T   T
  0.0001140088883127  0.3470172316149055  0.5705770370876693   T   T   T
  0.3470172316068361  0.6528697595000458  0.5705770370876693   T   T   T
  0.3471302404951513  0.9998859911149538  0.4294229629123306   T   T   T
  0.9998859911116873  0.6529827683850944  0.4294229629123306   T   T   T
  0.6529827683931638  0.3471302404999541  0.4294229629123306   T   T   T

  0.00000000E+00  0.00000000E+00  0.00000000E+00
  0.00000000E+00  0.00000000E+00  0.00000000E+00
  0.00000000E+00  0.00000000E+00  0.00000000E+00
  0.00000000E+00  0.00000000E+00  0.00000000E+00
  0.00000000E+00  0.00000000E+00  0.00000000E+00
  0.00000000E+00  0.00000000E+00  0.00000000E+00
  0.00000000E+00  0.00000000E+00  0.00000000E+00
  0.00000000E+00  0.00000000E+00  0.00000000E+00
  0.00000000E+00  0.00000000E+00  0.00000000E+00
  0.00000000E+00  0.00000000E+00  0.00000000E+00
