Ni2 Ge2 S6                              
   1.0000000000000000     
     5.9608824716050544    0.0000001014444899   -0.0000000000000000
     2.9804408556110231    5.1622754863025317   -0.0000000000000000
    -0.0000000000000000   -0.0000000000000000   23.4885000423881465
   Ni   Ge   S 
     2     2     6
Selective dynamics
Direct
  0.3333330000000032  0.3333330000000032  0.5000210557608937   T   T   T
  0.6666669999999968  0.6666669999999968  0.4999789442391065   T   T   T
  0.0000000000000000  0.0000000000000000  0.4482160000000022   F   F   F
  0.0000000000000000  0.0000000000000000  0.5517839999999978   F   F   F
  0.6176620529714992 -0.0000976915124780  0.5616763659486090   T   T   T
 -0.0000976915050916  0.3824366385527980  0.5616763659486090   T   T   T
  0.3824366385335901  0.6176620529596775  0.5616763659486090   T   T   T
  0.3823379470285010  0.0000976915124782  0.4383236340513910   T   T   T
  0.0000976915050916  0.6175633614472021  0.4383236340513910   T   T   T
  0.6175633614664100  0.3823379470403226  0.4383236340513910   T   T   T

  0.00000000E+00  0.00000000E+00  0.00000000E+00
  0.00000000E+00  0.00000000E+00  0.00000000E+00
  0.00000000E+00  0.00000000E+00  0.00000000E+00
  0.00000000E+00  0.00000000E+00  0.00000000E+00
  0.00000000E+00  0.00000000E+00  0.00000000E+00
  0.00000000E+00  0.00000000E+00  0.00000000E+00
  0.00000000E+00  0.00000000E+00  0.00000000E+00
  0.00000000E+00  0.00000000E+00  0.00000000E+00
  0.00000000E+00  0.00000000E+00  0.00000000E+00
  0.00000000E+00  0.00000000E+00  0.00000000E+00
