Ni2 Si P Se6                            
   1.0000000000000000     
     6.1798927353541835    0.0000003663493275    0.0000000000000000
     3.0899457091691227    5.3519440350863325   -0.0000000000000000
    -0.0000000000000000   -0.0000000000000000   21.9230633393103602
   Ni   Si   P    Se
     2     1     1     6
Selective dynamics
Direct
  0.3333330000000032  0.3333330000000032  0.4998327013775279   T   T   T
  0.6666669999999968  0.6666669999999968  0.4999240587559277   T   T   T
 -0.0000000000000000 -0.0000000000000000  0.4485593556393048   T   T   T
 -0.0000000000000000 -0.0000000000000000  0.5515201251351511   T   T   T
  0.6364007304313675  0.0001757572276964  0.5709975005274267   T   T   T
  0.0001757572210118  0.3634245123309057  0.5709975005274267   T   T   T
  0.3634245123476182  0.6364007304413953  0.5709975005274267   T   T   T
  0.3645092502838586  0.9998760113972591  0.4290570858366029   T   T   T
  0.9998760114051799  0.6356137383307011  0.4290570858366029   T   T   T
  0.6356137383109641  0.3645092502720424  0.4290570858366029   T   T   T

  0.00000000E+00  0.00000000E+00  0.00000000E+00
  0.00000000E+00  0.00000000E+00  0.00000000E+00
  0.00000000E+00  0.00000000E+00  0.00000000E+00
  0.00000000E+00  0.00000000E+00  0.00000000E+00
  0.00000000E+00  0.00000000E+00  0.00000000E+00
  0.00000000E+00  0.00000000E+00  0.00000000E+00
  0.00000000E+00  0.00000000E+00  0.00000000E+00
  0.00000000E+00  0.00000000E+00  0.00000000E+00
  0.00000000E+00  0.00000000E+00  0.00000000E+00
  0.00000000E+00  0.00000000E+00  0.00000000E+00
