Ni2 Si Ge Te6                           
   1.0000000000000000     
     6.7935551768230820    0.0000026646182937   -0.0000000000000000
     3.3967748075626840    5.8833923513555302   -0.0000000000000000
    -0.0000000000000000   -0.0000000000000001   21.6830446241458645
   Ni   Si   Ge   Te
     2     1     1     6
Direct
  0.3333330000000032  0.3333330000000032  0.4924889184218862
  0.6666669999999968  0.6666669999999968  0.4921190592619191
 -0.0000000000000000 -0.0000000000000000  0.4653423969455751
 -0.0000000000000000 -0.0000000000000000  0.5800059133815075
  0.5813064495023585 -0.0004820508202819  0.5663933495140050
 -0.0004820508140398  0.4191766013254120  0.5663933495140050
  0.4191766013116789  0.5813064494948669  0.5663933495140050
  0.3546788659614584  0.0004713700263613  0.4236212211490323
  0.0004713700285226  0.6448487640156778  0.4236212211490323
  0.6448487640100221  0.3546788659579635  0.4236212211490323

  0.00000000E+00  0.00000000E+00  0.00000000E+00
  0.00000000E+00  0.00000000E+00  0.00000000E+00
  0.00000000E+00  0.00000000E+00  0.00000000E+00
  0.00000000E+00  0.00000000E+00  0.00000000E+00
  0.00000000E+00  0.00000000E+00  0.00000000E+00
  0.00000000E+00  0.00000000E+00  0.00000000E+00
  0.00000000E+00  0.00000000E+00  0.00000000E+00
  0.00000000E+00  0.00000000E+00  0.00000000E+00
  0.00000000E+00  0.00000000E+00  0.00000000E+00
  0.00000000E+00  0.00000000E+00  0.00000000E+00
