Ni2 Si2 Se6                             
   1.0000000000000000     
     6.1593558929731049    0.0000002658389966    0.0000000000000000
     3.0796773783248037    5.3341585600303780   -0.0000000000000000
     0.0000000000000000   -0.0000000000000000   22.0895399149772658
   Ni   Si   Se
     2     2     6
Selective dynamics
Direct
  0.3333330000000032  0.3333330000000032  0.4999505745377197   T   T   T
  0.6666669999999968  0.6666669999999968  0.5000494254622804   T   T   T
 -0.0000000000000000  0.0000000000000000  0.4483192804177011   T   T   T
 -0.0000000000000000  0.0000000000000000  0.5516807195822989   T   T   T
  0.6302236421197698  0.0001190791724451  0.5709777795169348   T   T   T
  0.0001190791644180  0.3696582786958688  0.5709777795169348   T   T   T
  0.3696582787158098  0.6302236421316836  0.5709777795169348   T   T   T
  0.3697763578802303  0.9998809208275550  0.4290222204830650   T   T   T
  0.9998809208355820  0.6303417213041312  0.4290222204830650   T   T   T
  0.6303417212841903  0.3697763578683164  0.4290222204830650   T   T   T

  0.00000000E+00  0.00000000E+00  0.00000000E+00
  0.00000000E+00  0.00000000E+00  0.00000000E+00
  0.00000000E+00  0.00000000E+00  0.00000000E+00
  0.00000000E+00  0.00000000E+00  0.00000000E+00
  0.00000000E+00  0.00000000E+00  0.00000000E+00
  0.00000000E+00  0.00000000E+00  0.00000000E+00
  0.00000000E+00  0.00000000E+00  0.00000000E+00
  0.00000000E+00  0.00000000E+00  0.00000000E+00
  0.00000000E+00  0.00000000E+00  0.00000000E+00
  0.00000000E+00  0.00000000E+00  0.00000000E+00
