Cr2 Ge P Se6                            
   1.0000000000000000     
     6.3486993630789552   -0.0000000295055696   -0.0000000000000000
     3.1743493288779425    5.4981346380546334   -0.0000000000000000
     0.0000000000000000    0.0000000000000000   22.1585123382219074
   Cr   Ge   P    Se
     2     1     1     6
Selective dynamics
Direct
  0.3333330000000032  0.3333330000000032  0.4999249999999975   F   F   F
  0.6666669999999968  0.6666669999999968  0.5000750000000025   F   F   F
  0.0000000000000000  0.0000000000000000  0.4482160000000022   F   F   F
 -0.0000000000000000  0.0000000000000000  0.5545232314274013   T   T   T
  0.6302958739422814  0.0001595419799156  0.5702287043515378   T   T   T
  0.0001595419767921  0.3695455840726091  0.5702287043515378   T   T   T
  0.3695455840809240  0.6302958739474727  0.5702287043515378   T   T   T
  0.3741770473706169  0.9998219922160995  0.4273043780304691   T   T   T
  0.9998219922205756  0.6259999604199993  0.4273043780304691   T   T   T
  0.6259999604088099  0.3741770473639037  0.4273043780304691   T   T   T

  0.00000000E+00  0.00000000E+00  0.00000000E+00
  0.00000000E+00  0.00000000E+00  0.00000000E+00
  0.00000000E+00  0.00000000E+00  0.00000000E+00
  0.00000000E+00  0.00000000E+00  0.00000000E+00
  0.00000000E+00  0.00000000E+00  0.00000000E+00
  0.00000000E+00  0.00000000E+00  0.00000000E+00
  0.00000000E+00  0.00000000E+00  0.00000000E+00
  0.00000000E+00  0.00000000E+00  0.00000000E+00
  0.00000000E+00  0.00000000E+00  0.00000000E+00
  0.00000000E+00  0.00000000E+00  0.00000000E+00
