Cr2 Ge P Se6
1.0
6.907777 -0.000000 0.000000
3.453888 5.982310 0.000000
0.000000 0.000000 23.444588
Cr Ge P Se
2 1 1 6
Selective Dynamics
direct
0.333333 0.333333 0.499925 F F F
0.666667 0.666667 0.500075 F F F
0.000000 0.000000 0.448216 F F F
0.000000 0.000000 0.551784 T T T
0.626357 0.000420 0.573752 T T T
0.000420 0.373224 0.573752 T T T
0.373224 0.626357 0.573752 T T T
0.373643 0.999580 0.426248 T T T
0.999580 0.626776 0.426248 T T T
0.626776 0.373643 0.426248 T T T

