Cr2 Si2 Se6                             
   1.0000000000000000     
     6.2187416474022532    0.0000000478272868   -0.0000000000000000
     3.1093704319031268    5.3855880138850729   -0.0000000000000000
     0.0000000000000000   -0.0000000000000000   22.1773175250152299
   Cr   Si   Se
     2     2     6
Selective dynamics
Direct
  0.3333330000000032  0.3333330000000032  0.4999328716302506   T   T   T
  0.6666669999999968  0.6666669999999968  0.5000671283697493   T   T   T
  0.0000000000000000  0.0000000000000000  0.4482160000000022   F   F   F
  0.0000000000000000  0.0000000000000000  0.5517839999999978   F   F   F
  0.6263569999999987  0.0004199999999983  0.5737519999999989   F   F   F
  0.0004199999999983  0.3732240000000004  0.5737519999999989   F   F   F
  0.3732240000000004  0.6263569999999987  0.5737519999999989   F   F   F
  0.3736430000000013  0.9995800000000017  0.4262480000000011   F   F   F
  0.9995800000000017  0.6267759999999996  0.4262480000000011   F   F   F
  0.6267759999999996  0.3736430000000013  0.4262480000000011   F   F   F

  0.00000000E+00  0.00000000E+00  0.00000000E+00
  0.00000000E+00  0.00000000E+00  0.00000000E+00
  0.00000000E+00  0.00000000E+00  0.00000000E+00
  0.00000000E+00  0.00000000E+00  0.00000000E+00
  0.00000000E+00  0.00000000E+00  0.00000000E+00
  0.00000000E+00  0.00000000E+00  0.00000000E+00
  0.00000000E+00  0.00000000E+00  0.00000000E+00
  0.00000000E+00  0.00000000E+00  0.00000000E+00
  0.00000000E+00  0.00000000E+00  0.00000000E+00
  0.00000000E+00  0.00000000E+00  0.00000000E+00
