Ni2 P Ge Se6                            
   1.0000000000000000     
     6.2269990816495300   -0.0000006754530936   -0.0000000000000002
     3.1134997741556019    5.3927387991587183   -0.0000000000000001
    -0.0000000000000006   -0.0000000000000005   22.8680210871126697
   Ni   P    Ge   Se
     2     1     1     6
Selective dynamics
Direct
  0.3333330000000032  0.3333330000000032  0.4907979857562265   T   T   T
  0.6666669999999968  0.6666669999999968  0.4904043883305467   T   T   T
  0.0000000000000000 -0.0000000000000000  0.4474773249044000   T   T   T
  0.0000000000000000  0.0000000000000000  0.5517839999999978   F   F   F
  0.6104662497658325 -0.0004533821064323  0.5588138990368141   T   T   T
 -0.0004533821097296  0.3899881323361355  0.5588138990368141   T   T   T
  0.3899881323438946  0.6104662497702940  0.5588138990368141   T   T   T
  0.3538426027668016  0.0009985561449714  0.4235216579741901   T   T   T
  0.0009985561504748  0.6451578410954580  0.4235216579741901   T   T   T
  0.6451578410827262  0.3538426027595734  0.4235216579741901   T   T   T

  0.00000000E+00  0.00000000E+00  0.00000000E+00
  0.00000000E+00  0.00000000E+00  0.00000000E+00
  0.00000000E+00  0.00000000E+00  0.00000000E+00
  0.00000000E+00  0.00000000E+00  0.00000000E+00
  0.00000000E+00  0.00000000E+00  0.00000000E+00
  0.00000000E+00  0.00000000E+00  0.00000000E+00
  0.00000000E+00  0.00000000E+00  0.00000000E+00
  0.00000000E+00  0.00000000E+00  0.00000000E+00
  0.00000000E+00  0.00000000E+00  0.00000000E+00
  0.00000000E+00  0.00000000E+00  0.00000000E+00
