Ni2 Ge2 Te6                             
   1.0000000000000000     
     6.8248768549785384    0.0000001392312396    0.0000000000000000
     3.4124378271924471    5.9105164528822067    0.0000000000000000
     0.0000000000000000    0.0000000000000000   22.4354313093933584
   Ni   Ge   Te
     2     2     6
Direct
  0.3333330000000032  0.3333330000000032  0.4999597797665696
  0.6666669999999968  0.6666669999999968  0.5000402202334304
 -0.0000000000000000  0.0000000000000000  0.4435170695998631
 -0.0000000000000000  0.0000000000000000  0.5564829304001370
  0.6063343958907405  0.0001004638876402  0.5708711796838887
  0.0001004638786999  0.3935661402091723  0.5708711796838887
  0.3935661402305572  0.6063343959031848  0.5708711796838887
  0.3936656041092597  0.9998995361123597  0.4291288203161112
  0.9998995361213002  0.6064338597908278  0.4291288203161112
  0.6064338597694428  0.3936656040968150  0.4291288203161112

  0.00000000E+00  0.00000000E+00  0.00000000E+00
  0.00000000E+00  0.00000000E+00  0.00000000E+00
  0.00000000E+00  0.00000000E+00  0.00000000E+00
  0.00000000E+00  0.00000000E+00  0.00000000E+00
  0.00000000E+00  0.00000000E+00  0.00000000E+00
  0.00000000E+00  0.00000000E+00  0.00000000E+00
  0.00000000E+00  0.00000000E+00  0.00000000E+00
  0.00000000E+00  0.00000000E+00  0.00000000E+00
  0.00000000E+00  0.00000000E+00  0.00000000E+00
  0.00000000E+00  0.00000000E+00  0.00000000E+00
