Cr2 P2 Se6                              
   1.0000000000000000     
     6.3385433096922279    0.0000000729960732   -0.0000000000000000
     3.1692712156945557    5.4893392907371101   -0.0000000000000000
    -0.0000000000000000    0.0000000000000000   21.9420796171693873
   Cr   P    Se
     2     2     6
Selective dynamics
Direct
  0.3333330000000032  0.3333330000000032  0.4999249999999975   F   F   F
  0.6666669999999968  0.6666669999999968  0.5000750000000025   F   F   F
 -0.0000000000000000  0.0000000000000000  0.4480059356561327   T   T   T
 -0.0000000000000000  0.0000000000000000  0.5519940643438672   T   T   T
  0.6294404281072481  0.0002390453098740  0.5709659676251728   T   T   T
  0.0002390453076531  0.3703215265794320  0.5709659676251728   T   T   T
  0.3703215265850964  0.6294404281106916  0.5709659676251728   T   T   T
  0.3705595718927520  0.9997609546901259  0.4290340323748271   T   T   T
  0.9997609546923469  0.6296784734205679  0.4290340323748271   T   T   T
  0.6296784734149037  0.3705595718893085  0.4290340323748271   T   T   T

  0.00000000E+00  0.00000000E+00  0.00000000E+00
  0.00000000E+00  0.00000000E+00  0.00000000E+00
  0.00000000E+00  0.00000000E+00  0.00000000E+00
  0.00000000E+00  0.00000000E+00  0.00000000E+00
  0.00000000E+00  0.00000000E+00  0.00000000E+00
  0.00000000E+00  0.00000000E+00  0.00000000E+00
  0.00000000E+00  0.00000000E+00  0.00000000E+00
  0.00000000E+00  0.00000000E+00  0.00000000E+00
  0.00000000E+00  0.00000000E+00  0.00000000E+00
  0.00000000E+00  0.00000000E+00  0.00000000E+00
