Ni2 Si Ge S6                            
   1.0000000000000000     
     5.8811565784863298    0.0000000661434772   -0.0000000000000000
     2.9405779552988744    5.0932308313362702    0.0000000000000000
    -0.0000000000000000    0.0000000000000000   21.5183406514677706
   Ni   Si   Ge   S 
     2     1     1     6
Selective dynamics
Direct
  0.3333330000000032  0.3333330000000032  0.5009564520301807   T   T   T
  0.6666669999999968  0.6666669999999968  0.5010187993074757   T   T   T
  0.0000000000000000  0.0000000000000000  0.4433001044693187   T   T   T
  0.0000000000000000  0.0000000000000000  0.5517839999999978   F   F   F
  0.6163178810698566  0.0000589966245255  0.5690808656164082   T   T   T
  0.0000589966301300  0.3836241223140000  0.5690808656164082   T   T   T
  0.3836241223000109  0.6163178810614722  0.5690808656164082   T   T   T
  0.3610333880429488  0.9999308394803499  0.4302887423458686   T   T   T
  0.9999308394689416  0.6390347724597960  0.4302887423458686   T   T   T
  0.6390347724881121  0.3610333880598564  0.4302887423458686   T   T   T

  0.00000000E+00  0.00000000E+00  0.00000000E+00
  0.00000000E+00  0.00000000E+00  0.00000000E+00
  0.00000000E+00  0.00000000E+00  0.00000000E+00
  0.00000000E+00  0.00000000E+00  0.00000000E+00
  0.00000000E+00  0.00000000E+00  0.00000000E+00
  0.00000000E+00  0.00000000E+00  0.00000000E+00
  0.00000000E+00  0.00000000E+00  0.00000000E+00
  0.00000000E+00  0.00000000E+00  0.00000000E+00
  0.00000000E+00  0.00000000E+00  0.00000000E+00
  0.00000000E+00  0.00000000E+00  0.00000000E+00
