Ni2 Si Ge Se6                           
   1.0000000000000000     
     6.2280777332034738    0.0000002501748936   -0.0000000000000000
     3.1140382979026109    5.3936734013184164    0.0000000000000000
    -0.0000000000000000    0.0000000000000000   21.9982848994884002
   Ni   Si   Ge   Se
     2     1     1     6
Selective dynamics
Direct
  0.3333330000000032  0.3333330000000032  0.5005402436257832   T   T   T
  0.6666669999999968  0.6666669999999968  0.5006298357576100   T   T   T
  0.0000000000000000  0.0000000000000000  0.4446313713056254   T   T   T
  0.0000000000000000  0.0000000000000000  0.5517839999999978   F   F   F
  0.6124245119763602  0.0000398862509725  0.5704663785775378   T   T   T
  0.0000398862461406  0.3875366017656057  0.5704663785775378   T   T   T
  0.3875366017774967  0.6124245119834191  0.5704663785775378   T   T   T
  0.3690606046179065  0.9996766383541964  0.4294686270213494   T   T   T
  0.9996766383613211  0.6312617570385197  0.4294686270213494   T   T   T
  0.6312617570207749  0.3690606046072866  0.4294686270213494   T   T   T

  0.00000000E+00  0.00000000E+00  0.00000000E+00
  0.00000000E+00  0.00000000E+00  0.00000000E+00
  0.00000000E+00  0.00000000E+00  0.00000000E+00
  0.00000000E+00  0.00000000E+00  0.00000000E+00
  0.00000000E+00  0.00000000E+00  0.00000000E+00
  0.00000000E+00  0.00000000E+00  0.00000000E+00
  0.00000000E+00  0.00000000E+00  0.00000000E+00
  0.00000000E+00  0.00000000E+00  0.00000000E+00
  0.00000000E+00  0.00000000E+00  0.00000000E+00
  0.00000000E+00  0.00000000E+00  0.00000000E+00
