Ni2 Si P Te6                            
   1.0000000000000000     
     6.7190452307152722   -0.0000000989749349   -0.0000000000000000
     3.3595222445141815    5.8188634755821482   -0.0000000000000000
    -0.0000000000000000    0.0000000000000000   21.7522762263749669
   Ni   Si   P    Te
     2     1     1     6
Selective dynamics
Direct
  0.3333330000000032  0.3333330000000032  0.5003790320658370   T   T   T
  0.6666669999999968  0.6666669999999968  0.5005630224237576   T   T   T
  0.0000000000000000  0.0000000000000000  0.4483405669981310   T   T   T
  0.0000000000000000  0.0000000000000000  0.5538238153902229   T   T   T
  0.6263569999999987  0.0004199999999983  0.5737519999999989   F   F   F
  0.0004199999999983  0.3732240000000004  0.5737519999999989   F   F   F
  0.3732240000000004  0.6263569999999987  0.5737519999999989   F   F   F
  0.3736430000000013  0.9995800000000017  0.4262480000000011   F   F   F
  0.9995800000000017  0.6267759999999996  0.4262480000000011   F   F   F
  0.6267759999999996  0.3736430000000013  0.4262480000000011   F   F   F

  0.00000000E+00  0.00000000E+00  0.00000000E+00
  0.00000000E+00  0.00000000E+00  0.00000000E+00
  0.00000000E+00  0.00000000E+00  0.00000000E+00
  0.00000000E+00  0.00000000E+00  0.00000000E+00
  0.00000000E+00  0.00000000E+00  0.00000000E+00
  0.00000000E+00  0.00000000E+00  0.00000000E+00
  0.00000000E+00  0.00000000E+00  0.00000000E+00
  0.00000000E+00  0.00000000E+00  0.00000000E+00
  0.00000000E+00  0.00000000E+00  0.00000000E+00
  0.00000000E+00  0.00000000E+00  0.00000000E+00
