Cr2 P2 Te6                              
   1.0000000000000000     
     6.8556537760473431    0.0000000058078994   -0.0000000000000000
     3.4278263945513192    5.9371699752864000    0.0000000000000000
    -0.0000000000000000    0.0000000000000000   22.8164190220905674
   Cr   P    Te
     2     2     6
Selective dynamics
Direct
  0.3333330000000032  0.3333330000000032  0.4999249999999975   F   F   F
  0.6666669999999968  0.6666669999999968  0.5000750000000025   F   F   F
  0.0000000000000000  0.0000000000000000  0.4507614688764346   T   T   T
  0.0000000000000000 -0.0000000000000000  0.5492385311235654   T   T   T
  0.6263569999999987  0.0004199999999983  0.5737519999999989   F   F   F
  0.0004199999999983  0.3732240000000004  0.5737519999999989   F   F   F
  0.3732240000000004  0.6263569999999987  0.5737519999999989   F   F   F
  0.3736430000000013  0.9995800000000017  0.4262480000000011   F   F   F
  0.9995800000000017  0.6267759999999996  0.4262480000000011   F   F   F
  0.6267759999999996  0.3736430000000013  0.4262480000000011   F   F   F

  0.00000000E+00  0.00000000E+00  0.00000000E+00
  0.00000000E+00  0.00000000E+00  0.00000000E+00
  0.00000000E+00  0.00000000E+00  0.00000000E+00
  0.00000000E+00  0.00000000E+00  0.00000000E+00
  0.00000000E+00  0.00000000E+00  0.00000000E+00
  0.00000000E+00  0.00000000E+00  0.00000000E+00
  0.00000000E+00  0.00000000E+00  0.00000000E+00
  0.00000000E+00  0.00000000E+00  0.00000000E+00
  0.00000000E+00  0.00000000E+00  0.00000000E+00
  0.00000000E+00  0.00000000E+00  0.00000000E+00
