Cr2 Si2 Te6                             
   1.0000000000000000     
     6.8195468808694617   -0.0000001317611497   -0.0000000000000001
     3.4097730748486974    5.9059004244239821   -0.0000000000000000
    -0.0000000000000002    0.0000000000000001   22.1157604797598673
   Cr   Si   Te
     2     2     6
Selective dynamics
Direct
  0.3333330000000032  0.3333330000000032  0.5000352293294117   T   T   T
  0.6666669999999968  0.6666669999999968  0.4999647706705881   T   T   T
  0.0000000000000000  0.0000000000000000  0.4482160000000022   F   F   F
  0.0000000000000000  0.0000000000000000  0.5517839999999978   F   F   F
  0.6359991349792182 -0.0000614468821123  0.5785217311308761   T   T   T
 -0.0000614468806349  0.3640633119050125  0.5785217311308761   T   T   T
  0.3640633119014142  0.6359991349770974  0.5785217311308761   T   T   T
  0.3640008650207817  0.0000614468821123  0.4214782688691239   T   T   T
  0.0000614468806349  0.6359366880949875  0.4214782688691239   T   T   T
  0.6359366880985859  0.3640008650229029  0.4214782688691239   T   T   T

  0.00000000E+00  0.00000000E+00  0.00000000E+00
  0.00000000E+00  0.00000000E+00  0.00000000E+00
  0.00000000E+00  0.00000000E+00  0.00000000E+00
  0.00000000E+00  0.00000000E+00  0.00000000E+00
  0.00000000E+00  0.00000000E+00  0.00000000E+00
  0.00000000E+00  0.00000000E+00  0.00000000E+00
  0.00000000E+00  0.00000000E+00  0.00000000E+00
  0.00000000E+00  0.00000000E+00  0.00000000E+00
  0.00000000E+00  0.00000000E+00  0.00000000E+00
  0.00000000E+00  0.00000000E+00  0.00000000E+00
