Cr2 Si Ge Te6                           
   1.0000000000000000     
     6.8631234316189769   -0.0000000462797906   -0.0000000000000000
     3.4315612657732175    5.9436388595014247    0.0000000000000000
     0.0000000000000000    0.0000000000000000   23.4415592812645741
   Cr   Si   Ge   Te
     2     1     1     6
Direct
  0.3333330000000032  0.3333330000000032  0.5001627865518812
  0.6666669999999968  0.6666669999999968  0.5003120395863858
  0.0000000000000000 -0.0000000000000000  0.4486533010145272
  0.0000000000000000 -0.0000000000000000  0.5494134074017402
  0.6238490639738490  0.0001878610102552  0.5744000306788160
  0.0001878610098275  0.3759640750154640  0.5744000306788160
  0.3759640750163211  0.6238490639742783  0.5744000306788160
  0.3634244974109832  0.9998196654859142  0.4260861244696725
  0.9998196654843926  0.6367548371007336  0.4260861244696725
  0.6367548371046267  0.3634244974133549  0.4260861244696725

  0.00000000E+00  0.00000000E+00  0.00000000E+00
  0.00000000E+00  0.00000000E+00  0.00000000E+00
  0.00000000E+00  0.00000000E+00  0.00000000E+00
  0.00000000E+00  0.00000000E+00  0.00000000E+00
  0.00000000E+00  0.00000000E+00  0.00000000E+00
  0.00000000E+00  0.00000000E+00  0.00000000E+00
  0.00000000E+00  0.00000000E+00  0.00000000E+00
  0.00000000E+00  0.00000000E+00  0.00000000E+00
  0.00000000E+00  0.00000000E+00  0.00000000E+00
  0.00000000E+00  0.00000000E+00  0.00000000E+00
