Cr2 Si P S6                             
   1.0000000000000000     
     5.9238402980766063    0.0000000616973803    0.0000000000000000
     2.9619198102920787    5.1301960082784568    0.0000000000000000
    -0.0000000000000000    0.0000000000000000   21.4634983270893933
   Cr   Si   P    S 
     2     1     1     6
Selective dynamics
Direct
  0.3333330000000032  0.3333330000000032  0.4999249999999975   F   F   F
  0.6666669999999968  0.6666669999999968  0.5000750000000025   F   F   F
  0.0000000000000000  0.0000000000000000  0.4497786741907307   T   T   T
  0.0000000000000000  0.0000000000000000  0.5529828220839527   T   T   T
  0.6391353287281202  0.0001333951838821  0.5698696957672786   T   T   T
  0.0001333951901782  0.3607322760973704  0.5698696957672786   T   T   T
  0.3607322760816990  0.6391353287187451  0.5698696957672786   T   T   T
  0.3535226453507948  0.9997873508111808  0.4288231659132677   T   T   T
  0.9997873508016497  0.6466890038239824  0.4288231659132677   T   T   T
  0.6466890038475582  0.3535226453648393  0.4288231659132677   T   T   T

  0.00000000E+00  0.00000000E+00  0.00000000E+00
  0.00000000E+00  0.00000000E+00  0.00000000E+00
  0.00000000E+00  0.00000000E+00  0.00000000E+00
  0.00000000E+00  0.00000000E+00  0.00000000E+00
  0.00000000E+00  0.00000000E+00  0.00000000E+00
  0.00000000E+00  0.00000000E+00  0.00000000E+00
  0.00000000E+00  0.00000000E+00  0.00000000E+00
  0.00000000E+00  0.00000000E+00  0.00000000E+00
  0.00000000E+00  0.00000000E+00  0.00000000E+00
  0.00000000E+00  0.00000000E+00  0.00000000E+00
