Ni2 Si P S6                             
   1.0000000000000000     
     5.8203664785683733    0.0000003335855834    0.0000000000000000
     2.9101826900727308    5.0405852061834011   -0.0000000000000000
    -0.0000000000000000    0.0000000000000000   21.3456361535077974
   Ni   Si   P    S 
     2     1     1     6
Selective dynamics
Direct
  0.3333330000000032  0.3333330000000032  0.4999786357341196   T   T   T
  0.6666669999999968  0.6666669999999968  0.4999719252014391   T   T   T
 -0.0000000000000000 -0.0000000000000000  0.4454981283920694   T   T   T
 -0.0000000000000000 -0.0000000000000000  0.5496414966373839   T   T   T
  0.6512089426593382 -0.0000080044240931  0.5714023438869299   T   T   T
 -0.0000080044554843  0.3488000617184916  0.5714023438869299   T   T   T
  0.3488000617961436  0.6512089427055986  0.5714023438869299   T   T   T
  0.3617033164687877 -0.0000192860711543  0.4302342607913997   T   T   T
 -0.0000192860347699  0.6383149696560800  0.4302342607913997   T   T   T
  0.6383149695659848  0.3617033164150766  0.4302342607913997   T   T   T

  0.00000000E+00  0.00000000E+00  0.00000000E+00
  0.00000000E+00  0.00000000E+00  0.00000000E+00
  0.00000000E+00  0.00000000E+00  0.00000000E+00
  0.00000000E+00  0.00000000E+00  0.00000000E+00
  0.00000000E+00  0.00000000E+00  0.00000000E+00
  0.00000000E+00  0.00000000E+00  0.00000000E+00
  0.00000000E+00  0.00000000E+00  0.00000000E+00
  0.00000000E+00  0.00000000E+00  0.00000000E+00
  0.00000000E+00  0.00000000E+00  0.00000000E+00
  0.00000000E+00  0.00000000E+00  0.00000000E+00
