Cr2 P Ge Se6                            
   1.0000000000000000     
     6.3516842458414509    0.0000000119523062    0.0000000000000000
     3.1758417338626614    5.5007196427226805    0.0000000000000000
    -0.0000000000000000    0.0000000000000000   22.2212661141298611
   Cr   P    Ge   Se
     2     1     1     6
Selective dynamics
Direct
  0.3333330000000032  0.3333330000000032  0.4999249999999975   F   F   F
  0.6666669999999968  0.6666669999999968  0.5000750000000025   F   F   F
  0.0000000000000000 -0.0000000000000000  0.4457869134250033   T   T   T
  0.0000000000000000  0.0000000000000000  0.5517839999999978   F   F   F
  0.6260609152092305  0.0002100970169200  0.5725098820865696   T   T   T
  0.0002100970131405  0.3737299877681161  0.5725098820865696   T   T   T
  0.3737299877776264  0.6260609152149614  0.5725098820865696   T   T   T
  0.3698219661350715  0.9997443660170362  0.4295881119821014   T   T   T
  0.9997443660198382  0.6304326678521814  0.4295881119821014   T   T   T
  0.6304326678450930  0.3698219661307849  0.4295881119821014   T   T   T

  0.00000000E+00  0.00000000E+00  0.00000000E+00
  0.00000000E+00  0.00000000E+00  0.00000000E+00
  0.00000000E+00  0.00000000E+00  0.00000000E+00
  0.00000000E+00  0.00000000E+00  0.00000000E+00
  0.00000000E+00  0.00000000E+00  0.00000000E+00
  0.00000000E+00  0.00000000E+00  0.00000000E+00
  0.00000000E+00  0.00000000E+00  0.00000000E+00
  0.00000000E+00  0.00000000E+00  0.00000000E+00
  0.00000000E+00  0.00000000E+00  0.00000000E+00
  0.00000000E+00  0.00000000E+00  0.00000000E+00
