Ni2 Si2 S6                              
   1.0000000000000000     
     5.8182544166275880    0.0000000304802180    0.0000000000000000
     2.9091269182578152    5.0387559528918517   -0.0000000000000000
     0.0000000000000000   -0.0000000000000000   21.3547229494548176
   Ni   Si   S 
     2     2     6
Selective dynamics
Direct
  0.3333330000000032  0.3333330000000032  0.4999420005265769   T   T   T
  0.6666669999999968  0.6666669999999968  0.5000579994734231   T   T   T
 -0.0000000000000000  0.0000000000000000  0.4469373032605620   T   T   T
 -0.0000000000000000  0.0000000000000000  0.5530626967394380   T   T   T
  0.6358176385916191  0.0001896987833711  0.5699063106352154   T   T   T
  0.0001896987902477  0.3639936626351582  0.5699063106352154   T   T   T
  0.3639936626181307  0.6358176385814681  0.5699063106352154   T   T   T
  0.3641823614083810  0.9998103012166287  0.4300936893647849   T   T   T
  0.9998103012097522  0.6360063373648418  0.4300936893647849   T   T   T
  0.6360063373818694  0.3641823614185318  0.4300936893647849   T   T   T

  0.00000000E+00  0.00000000E+00  0.00000000E+00
  0.00000000E+00  0.00000000E+00  0.00000000E+00
  0.00000000E+00  0.00000000E+00  0.00000000E+00
  0.00000000E+00  0.00000000E+00  0.00000000E+00
  0.00000000E+00  0.00000000E+00  0.00000000E+00
  0.00000000E+00  0.00000000E+00  0.00000000E+00
  0.00000000E+00  0.00000000E+00  0.00000000E+00
  0.00000000E+00  0.00000000E+00  0.00000000E+00
  0.00000000E+00  0.00000000E+00  0.00000000E+00
  0.00000000E+00  0.00000000E+00  0.00000000E+00
