Ni2 P Ge Te6                            
   1.0000000000000000     
     6.8099406881687594    0.0000006450255551   -0.0000000000000000
     3.4049693086064043    5.8975816079709338   -0.0000000000000000
     0.0000000000000000    0.0000000000000001   21.4638274304931684
   Ni   P    Ge   Te
     2     1     1     6
Selective dynamics
Direct
  0.3333330000000032  0.3333330000000032  0.4995997118631620   T   T   T
  0.6666669999999968  0.6666669999999968  0.4997602211500247   T   T   T
 -0.0000000000000000 -0.0000000000000000  0.4398377735310255   T   T   T
  0.0000000000000000  0.0000000000000000  0.5517839999999978   F   F   F
  0.6263569999999987  0.0004199999999983  0.5737519999999989   F   F   F
  0.0004199999999983  0.3732240000000004  0.5737519999999989   F   F   F
  0.3732240000000004  0.6263569999999987  0.5737519999999989   F   F   F
  0.3736430000000013  0.9995800000000017  0.4262480000000011   F   F   F
  0.9995800000000017  0.6267759999999996  0.4262480000000011   F   F   F
  0.6267759999999996  0.3736430000000013  0.4262480000000011   F   F   F

  0.00000000E+00  0.00000000E+00  0.00000000E+00
  0.00000000E+00  0.00000000E+00  0.00000000E+00
  0.00000000E+00  0.00000000E+00  0.00000000E+00
  0.00000000E+00  0.00000000E+00  0.00000000E+00
  0.00000000E+00  0.00000000E+00  0.00000000E+00
  0.00000000E+00  0.00000000E+00  0.00000000E+00
  0.00000000E+00  0.00000000E+00  0.00000000E+00
  0.00000000E+00  0.00000000E+00  0.00000000E+00
  0.00000000E+00  0.00000000E+00  0.00000000E+00
  0.00000000E+00  0.00000000E+00  0.00000000E+00
