AGGAC = 0.0
ALGO = Normal
AMIN = 0.01
EDIFF = 0.0001
ENCUT = 520.0
GGA = Bo
IBRION = 2
ISIF = 3
ISMEAR = -5
ISPIN = 2
ISTART = 1
KPOINT_BSE = -1 0 0 0
LORBIT = 11
LREAL = Auto
LUSE_VDW = True
LWAVE = False
MAGMOM = 2*1.26 8*0.6
NELM = 400
NSW = 99
PARAM1 = 0.18333333
PARAM2 = 0.22
PREC = accurate
SIGMA = 0.05


