Cr2 P Ge S6                             
   1.0000000000000000     
     5.9870416856546980    0.0000000296239703   -0.0000000000000000
     2.9935205172581134    5.1849299887614553   -0.0000000000000000
    -0.0000000000000000    0.0000000000000000   21.4479226772709843
   Cr   P    Ge   S 
     2     1     1     6
Selective dynamics
Direct
  0.3333330000000032  0.3333330000000032  0.4999249999999975   F   F   F
  0.6666669999999968  0.6666669999999968  0.5000750000000025   F   F   F
 -0.0000000000000000 -0.0000000000000000  0.4442442895719798   T   T   T
  0.0000000000000000  0.0000000000000000  0.5517839999999978   F   F   F
  0.6278295696563970  0.0001519259331069  0.5706474126430825   T   T   T
  0.0001519259368374  0.3720195044160589  0.5706474126430825   T   T   T
  0.3720195044067631  0.6278295696508316  0.5706474126430825   T   T   T
  0.3602800256411828  0.9998445088780018  0.4307539372945415   T   T   T
  0.9998445088738458  0.6398744654746821  0.4307539372945415   T   T   T
  0.6398744654849741  0.3602800256473185  0.4307539372945415   T   T   T

  0.00000000E+00  0.00000000E+00  0.00000000E+00
  0.00000000E+00  0.00000000E+00  0.00000000E+00
  0.00000000E+00  0.00000000E+00  0.00000000E+00
  0.00000000E+00  0.00000000E+00  0.00000000E+00
  0.00000000E+00  0.00000000E+00  0.00000000E+00
  0.00000000E+00  0.00000000E+00  0.00000000E+00
  0.00000000E+00  0.00000000E+00  0.00000000E+00
  0.00000000E+00  0.00000000E+00  0.00000000E+00
  0.00000000E+00  0.00000000E+00  0.00000000E+00
  0.00000000E+00  0.00000000E+00  0.00000000E+00
