Cr2 Ge2 Te6                             
   1.0000000000000000     
     6.9190039827276539   -0.0000000120302126    0.0000000000000000
     3.4595014993443955    5.9920328444519191    0.0000000000000000
     0.0000000000000000   -0.0000000000000000   23.4725156140488878
   Cr   Ge   Te
     2     2     6
Direct
  0.3333330000000032  0.3333330000000032  0.4999209963995326
  0.6666669999999968  0.6666669999999968  0.5000790036004673
  0.0000000000000000  0.0000000000000000  0.4482479108635379
  0.0000000000000000  0.0000000000000000  0.5517520891364622
  0.6259070387055874  0.0003773431303532  0.5737862901061558
  0.0003773431302960  0.3737166181639933  0.5737862901061558
  0.3737166181641141  0.6259070387056509  0.5737862901061558
  0.3740929612944126  0.9996226568696467  0.4262137098938443
  0.9996226568697040  0.6262833818360066  0.4262137098938443
  0.6262833818358858  0.3740929612943491  0.4262137098938443

  0.00000000E+00  0.00000000E+00  0.00000000E+00
  0.00000000E+00  0.00000000E+00  0.00000000E+00
  0.00000000E+00  0.00000000E+00  0.00000000E+00
  0.00000000E+00  0.00000000E+00  0.00000000E+00
  0.00000000E+00  0.00000000E+00  0.00000000E+00
  0.00000000E+00  0.00000000E+00  0.00000000E+00
  0.00000000E+00  0.00000000E+00  0.00000000E+00
  0.00000000E+00  0.00000000E+00  0.00000000E+00
  0.00000000E+00  0.00000000E+00  0.00000000E+00
  0.00000000E+00  0.00000000E+00  0.00000000E+00
