Cr2 Si2 S6                              
   1.0000000000000000     
     5.9272966787439003    0.0000000543224555   -0.0000000000000000
     2.9636480058882206    5.1331893172317038   -0.0000000000000000
     0.0000000000000000   -0.0000000000000000   21.7783991404173882
   Cr   Si   S 
     2     2     6
Selective dynamics
Direct
  0.3333330000000032  0.3333330000000032  0.4999249999999975   F   F   F
  0.6666669999999968  0.6666669999999968  0.5000750000000025   F   F   F
 -0.0000000000000000  0.0000000000000000  0.4491861247642837   T   T   T
 -0.0000000000000000 -0.0000000000000000  0.5508138752357163   T   T   T
  0.6425401422680965  0.0001987786946130  0.5711964616645567   T   T   T
  0.0001987786903908  0.3572620790311114  0.5711964616645567   T   T   T
  0.3572620790415102  0.6425401422742730  0.5711964616645567   T   T   T
  0.3574598577319035  0.9998012213053870  0.4288035383354434   T   T   T
  0.9998012213096094  0.6427379209688886  0.4288035383354434   T   T   T
  0.6427379209584897  0.3574598577257269  0.4288035383354434   T   T   T

  0.00000000E+00  0.00000000E+00  0.00000000E+00
  0.00000000E+00  0.00000000E+00  0.00000000E+00
  0.00000000E+00  0.00000000E+00  0.00000000E+00
  0.00000000E+00  0.00000000E+00  0.00000000E+00
  0.00000000E+00  0.00000000E+00  0.00000000E+00
  0.00000000E+00  0.00000000E+00  0.00000000E+00
  0.00000000E+00  0.00000000E+00  0.00000000E+00
  0.00000000E+00  0.00000000E+00  0.00000000E+00
  0.00000000E+00  0.00000000E+00  0.00000000E+00
  0.00000000E+00  0.00000000E+00  0.00000000E+00
