Cr2 Si P Te6                            
   1.0000000000000000     
     6.8349331945635008   -0.0000002371257726   -0.0000000000000000
     3.4174663195534194    5.9192253077914820   -0.0000000000000000
    -0.0000000000000000    0.0000000000000000   23.0305054882542564
   Cr   Si   P    Te
     2     1     1     6
Direct
  0.3333330000000032  0.3333330000000032  0.4967334105561003
  0.6666669999999968  0.6666669999999968  0.4966409289678180
 -0.0000000000000000  0.0000000000000000  0.4605129795418401
 -0.0000000000000000  0.0000000000000000  0.5592487993683882
  0.6164625246874752 -0.0001411336501935  0.5708688336789006
 -0.0001411336491614  0.3836796089639372  0.5708688336789006
  0.3836796089616837  0.6164625246862538  0.5708688336789006
  0.3525762401721572  0.0002069690148447  0.4247524601763840
  0.0002069690165100  0.6472157908159777  0.4247524601763840
  0.6472157908113356  0.3525762401691801  0.4247524601763840

  0.00000000E+00  0.00000000E+00  0.00000000E+00
  0.00000000E+00  0.00000000E+00  0.00000000E+00
  0.00000000E+00  0.00000000E+00  0.00000000E+00
  0.00000000E+00  0.00000000E+00  0.00000000E+00
  0.00000000E+00  0.00000000E+00  0.00000000E+00
  0.00000000E+00  0.00000000E+00  0.00000000E+00
  0.00000000E+00  0.00000000E+00  0.00000000E+00
  0.00000000E+00  0.00000000E+00  0.00000000E+00
  0.00000000E+00  0.00000000E+00  0.00000000E+00
  0.00000000E+00  0.00000000E+00  0.00000000E+00
