Cr2 Si Ge S6                            
   1.0000000000000000     
     5.9998892422994707    0.0000000450419638    0.0000000000000000
     2.9999442801602352    5.1960563053890194    0.0000000000000000
     0.0000000000000000    0.0000000000000001   21.7460229746883122
   Cr   Si   Ge   S 
     2     1     1     6
Selective dynamics
Direct
  0.3333330000000032  0.3333330000000032  0.4999249999999975   F   F   F
  0.6666669999999968  0.6666669999999968  0.5000750000000025   F   F   F
  0.0000000000000000 -0.0000000000000000  0.4469896493783406   T   T   T
  0.0000000000000000  0.0000000000000000  0.5517839999999978   F   F   F
  0.6234219032881551  0.0001689747969536  0.5708599929931885   T   T   T
  0.0001689747925540  0.3764101219084064  0.5708599929931885   T   T   T
  0.3764101219192882  0.6234219032946375  0.5708599929931885   T   T   T
  0.3534311767545971  0.9998316721178616  0.4292809629157519   T   T   T
  0.9998316721232279  0.6467361511354757  0.4292809629157519   T   T   T
  0.6467361511221776  0.3534311767466652  0.4292809629157519   T   T   T

  0.00000000E+00  0.00000000E+00  0.00000000E+00
  0.00000000E+00  0.00000000E+00  0.00000000E+00
  0.00000000E+00  0.00000000E+00  0.00000000E+00
  0.00000000E+00  0.00000000E+00  0.00000000E+00
  0.00000000E+00  0.00000000E+00  0.00000000E+00
  0.00000000E+00  0.00000000E+00  0.00000000E+00
  0.00000000E+00  0.00000000E+00  0.00000000E+00
  0.00000000E+00  0.00000000E+00  0.00000000E+00
  0.00000000E+00  0.00000000E+00  0.00000000E+00
  0.00000000E+00  0.00000000E+00  0.00000000E+00
