Cr2 Ge2 S6                              
   1.0000000000000000     
     6.0570768712856182   -0.0000000156002423   -0.0000000000000000
     3.0285381333677930    5.2455822044570715    0.0000000000000000
     0.0000000000000000   -0.0000000000000000   22.5840374601573508
   Cr   Ge   S 
     2     2     6
Selective dynamics
Direct
  0.3333330000000032  0.3333330000000032  0.4999249999999975   F   F   F
  0.6666669999999968  0.6666669999999968  0.5000750000000025   F   F   F
  0.0000000000000000  0.0000000000000000  0.4482160000000022   F   F   F
  0.0000000000000000  0.0000000000000000  0.5517839999999978   F   F   F
  0.6274078157673102  0.0000795220283743  0.5679941830423680   T   T   T
  0.0000795220204677  0.3725136621928679  0.5679941830423680   T   T   T
  0.3725136622122193  0.6274078157787553  0.5679941830423680   T   T   T
  0.3725921842326897 -0.0000795220283744  0.4320058169576320   T   T   T
 -0.0000795220204678  0.6274863378071321  0.4320058169576320   T   T   T
  0.6274863377877806  0.3725921842212446  0.4320058169576320   T   T   T

  0.00000000E+00  0.00000000E+00  0.00000000E+00
  0.00000000E+00  0.00000000E+00  0.00000000E+00
  0.00000000E+00  0.00000000E+00  0.00000000E+00
  0.00000000E+00  0.00000000E+00  0.00000000E+00
  0.00000000E+00  0.00000000E+00  0.00000000E+00
  0.00000000E+00  0.00000000E+00  0.00000000E+00
  0.00000000E+00  0.00000000E+00  0.00000000E+00
  0.00000000E+00  0.00000000E+00  0.00000000E+00
  0.00000000E+00  0.00000000E+00  0.00000000E+00
  0.00000000E+00  0.00000000E+00  0.00000000E+00
