Ni2 Ge2 Se6                             
   1.0000000000000000     
     6.2816025082073583    0.0000010300996321    0.0000000000000000
     3.1408000004092029    5.4400275991736420   -0.0000000000000000
     0.0000000000000000    0.0000000000000000   23.7427207683686419
   Ni   Ge   Se
     2     2     6
Selective dynamics
Direct
  0.3333330000000032  0.3333330000000032  0.4999985213119056   T   T   T
  0.6666669999999968  0.6666669999999968  0.5000014786880941   T   T   T
  0.0000000000000000  0.0000000000000000  0.4482160000000022   F   F   F
  0.0000000000000000  0.0000000000000000  0.5517839999999978   F   F   F
  0.6126844697782114 -0.0001170670628428  0.5640795236037612   T   T   T
 -0.0001170670699514  0.3874335972735440  0.5640795236037612   T   T   T
  0.3874335972917375  0.6126844697892962  0.5640795236037612   T   T   T
  0.3873155302217886  0.0001170670628428  0.4359204763962389   T   T   T
  0.0001170670699512  0.6125664027264559  0.4359204763962389   T   T   T
  0.6125664027082622  0.3873155302107038  0.4359204763962389   T   T   T

  0.00000000E+00  0.00000000E+00  0.00000000E+00
  0.00000000E+00  0.00000000E+00  0.00000000E+00
  0.00000000E+00  0.00000000E+00  0.00000000E+00
  0.00000000E+00  0.00000000E+00  0.00000000E+00
  0.00000000E+00  0.00000000E+00  0.00000000E+00
  0.00000000E+00  0.00000000E+00  0.00000000E+00
  0.00000000E+00  0.00000000E+00  0.00000000E+00
  0.00000000E+00  0.00000000E+00  0.00000000E+00
  0.00000000E+00  0.00000000E+00  0.00000000E+00
  0.00000000E+00  0.00000000E+00  0.00000000E+00
