Cr2 P Ge Te6                            
   1.0000000000000000     
     6.8781977037824600   -0.0000000654440272    0.0000000000000000
     3.4390984151496338    5.9566935501414786   -0.0000000000000000
    -0.0000000000000000   -0.0000000000000000   23.0009899703949010
   Cr   P    Ge   Te
     2     1     1     6
Selective dynamics
Direct
  0.3333330000000032  0.3333330000000032  0.4999249999999975   F   F   F
  0.6666669999999968  0.6666669999999968  0.5000750000000025   F   F   F
  0.0000000000000000 -0.0000000000000000  0.4470136501378738   T   T   T
  0.0000000000000000  0.0000000000000000  0.5517839999999978   F   F   F
  0.6263569999999987  0.0004199999999983  0.5737519999999989   F   F   F
  0.0004199999999983  0.3732240000000004  0.5737519999999989   F   F   F
  0.3732240000000004  0.6263569999999987  0.5737519999999989   F   F   F
  0.3736430000000013  0.9995800000000017  0.4262480000000011   F   F   F
  0.9995800000000017  0.6267759999999996  0.4262480000000011   F   F   F
  0.6267759999999996  0.3736430000000013  0.4262480000000011   F   F   F

  0.00000000E+00  0.00000000E+00  0.00000000E+00
  0.00000000E+00  0.00000000E+00  0.00000000E+00
  0.00000000E+00  0.00000000E+00  0.00000000E+00
  0.00000000E+00  0.00000000E+00  0.00000000E+00
  0.00000000E+00  0.00000000E+00  0.00000000E+00
  0.00000000E+00  0.00000000E+00  0.00000000E+00
  0.00000000E+00  0.00000000E+00  0.00000000E+00
  0.00000000E+00  0.00000000E+00  0.00000000E+00
  0.00000000E+00  0.00000000E+00  0.00000000E+00
  0.00000000E+00  0.00000000E+00  0.00000000E+00
